db/data/19432613056012781871128420274592115.z3.out
-------------------
2500.166399671
